\ This file has been generated by DOcplex
\ ENCODING=ISO-8859-1
\Problem name: dectiger problem

Maximize
 obj: - 21 aj_0 - 65 aj_1 - 65 aj_2 - 65 aj_3 - 34 aj_4 - 119 aj_5 - 65 aj_6
      - 119 aj_7 - 34 aj_8
Subject To
 c1: - 21 aj_0 - 65 aj_1 - 65 aj_2 - 65 aj_3 - 34 aj_4 - 119 aj_5 - 65 aj_6
     - 119 aj_7 - 34 aj_8 + 21 a0_0 + 65 a0_1 + 65 a0_2 >= 0
 c2: - 21 aj_0 - 65 aj_1 - 65 aj_2 - 65 aj_3 - 34 aj_4 - 119 aj_5 - 65 aj_6
     - 119 aj_7 - 34 aj_8 + 65 a0_0 + 34 a0_1 + 119 a0_2 >= 0
 c3: - 21 aj_0 - 65 aj_1 - 65 aj_2 - 65 aj_3 - 34 aj_4 - 119 aj_5 - 65 aj_6
     - 119 aj_7 - 34 aj_8 + 65 a0_0 + 119 a0_1 + 34 a0_2 >= 0
 c4: aj_0 + aj_1 + aj_2 - a0_0 = 0
 c5: aj_3 + aj_4 + aj_5 - a0_1 = 0
 c6: aj_6 + aj_7 + aj_8 - a0_2 = 0
 c7: aj_0 + aj_1 + aj_2 + aj_3 + aj_4 + aj_5 + aj_6 + aj_7 + aj_8 = 1
 c8: aj_0 + aj_3 + aj_6 - a1_0 = 0
 c9: aj_1 + aj_4 + aj_7 - a1_1 = 0
 c10: aj_2 + aj_5 + aj_8 - a1_2 = 0

Bounds
       a0_0 <= 1
       a0_1 <= 1
       a0_2 <= 1
 0 <= a1_0 <= 1
 0 <= a1_1 <= 1
 0 <= a1_2 <= 1
       aj_0 <= 1
       aj_1 <= 1
       aj_2 <= 1
       aj_3 <= 1
       aj_4 <= 1
       aj_5 <= 1
       aj_6 <= 1
       aj_7 <= 1
       aj_8 <= 1

Binaries
 a1_0 a1_1 a1_2
End
